19,11,13
9,27,20
14,12,13
7,19,7
28,25,28
21,30,30
7,10,10
17,30,24
16,24,6
30,20,15
19,28,20
12,6,26
9,23,26
22,16,7
19,14,26
24,22,21
10,30,9
10,21,13
29,22,24
27,29,6
26,14,11
28,30,11
17,14,29
9,30,13
26,15,12
